(set-info :smt-lib-version 2.6)
(set-logic UF)
(set-info :source |Benchmarks from the paper: "Extending Sledgehammer with SMT Solvers" by Jasmin Blanchette, Sascha Bohme, and Lawrence C. Paulson, CADE 2011.  Translated to SMT2 by Andrew Reynolds and Morgan Deters.|)
(set-info :category "industrial")
(set-info :status unknown)
(declare-sort S1 0)
(declare-sort S2 0)
(declare-sort S3 0)
(declare-sort S4 0)
(declare-sort S5 0)
(declare-sort S6 0)
(declare-sort S7 0)
(declare-sort S8 0)
(declare-sort S9 0)
(declare-sort S10 0)
(declare-sort S11 0)
(declare-sort S12 0)
(declare-sort S13 0)
(declare-sort S14 0)
(declare-sort S15 0)
(declare-sort S16 0)
(declare-sort S17 0)
(declare-sort S18 0)
(declare-sort S19 0)
(declare-sort S20 0)
(declare-sort S21 0)
(declare-sort S22 0)
(declare-sort S23 0)
(declare-sort S24 0)
(declare-sort S25 0)
(declare-sort S26 0)
(declare-sort S27 0)
(declare-sort S28 0)
(declare-sort S29 0)
(declare-sort S30 0)
(declare-sort S31 0)
(declare-sort S32 0)
(declare-sort S33 0)
(declare-sort S34 0)
(declare-sort S35 0)
(declare-sort S36 0)
(declare-sort S37 0)
(declare-sort S38 0)
(declare-sort S39 0)
(declare-sort S40 0)
(declare-sort S41 0)
(declare-sort S42 0)
(declare-sort S43 0)
(declare-sort S44 0)
(declare-sort S45 0)
(declare-fun f1 () S1)
(declare-fun f2 () S1)
(declare-fun f3 (S2 S3) S1)
(declare-fun f4 (S3) S2)
(declare-fun f5 (S4 S5) S3)
(declare-fun f6 () S4)
(declare-fun f7 (S6 S5) S5)
(declare-fun f8 () S6)
(declare-fun f9 () S6)
(declare-fun f10 () S5)
(declare-fun f11 () S7)
(declare-fun f12 () S7)
(declare-fun f13 () S3)
(declare-fun f14 (S8 S3) S3)
(declare-fun f15 () S8)
(declare-fun f16 (S9 S7) S3)
(declare-fun f17 () S9)
(declare-fun f18 (S11 S10) S10)
(declare-fun f19 (S12 S7) S11)
(declare-fun f20 () S12)
(declare-fun f21 () S9)
(declare-fun f22 (S14 S13) S3)
(declare-fun f23 () S14)
(declare-fun f24 () S13)
(declare-fun f25 () S14)
(declare-fun f26 (S16 S15) S3)
(declare-fun f27 () S16)
(declare-fun f28 () S15)
(declare-fun f29 () S16)
(declare-fun f30 (S18 S17) S3)
(declare-fun f31 () S18)
(declare-fun f32 () S17)
(declare-fun f33 () S18)
(declare-fun f34 (S20 S19) S3)
(declare-fun f35 () S20)
(declare-fun f36 () S19)
(declare-fun f37 () S20)
(declare-fun f38 (S22 S21) S3)
(declare-fun f39 () S22)
(declare-fun f40 () S21)
(declare-fun f41 () S22)
(declare-fun f42 (S24 S23) S3)
(declare-fun f43 () S24)
(declare-fun f44 () S23)
(declare-fun f45 () S24)
(declare-fun f46 (S5 S5) S1)
(declare-fun f47 () S5)
(declare-fun f48 () S6)
(declare-fun f49 (S13 S13) S1)
(declare-fun f50 (S25 S5) S13)
(declare-fun f51 () S25)
(declare-fun f52 (S23 S23) S1)
(declare-fun f53 (S26 S5) S23)
(declare-fun f54 () S26)
(declare-fun f55 () S10)
(declare-fun f56 (S27 S23) S6)
(declare-fun f57 () S27)
(declare-fun f58 (S28 S21) S8)
(declare-fun f59 () S28)
(declare-fun f60 (S29 S7) S7)
(declare-fun f61 (S30 S19) S29)
(declare-fun f62 () S30)
(declare-fun f63 (S31 S13) S13)
(declare-fun f64 (S32 S33) S31)
(declare-fun f65 () S32)
(declare-fun f66 () S33)
(declare-fun f67 (S34 S15) S15)
(declare-fun f68 (S35 S36) S34)
(declare-fun f69 () S35)
(declare-fun f70 () S36)
(declare-fun f71 (S37 S17) S17)
(declare-fun f72 (S38 S39) S37)
(declare-fun f73 () S38)
(declare-fun f74 () S39)
(declare-fun f75 (S40 S19) S19)
(declare-fun f76 (S41 S17) S40)
(declare-fun f77 () S41)
(declare-fun f78 (S42 S21) S21)
(declare-fun f79 (S43 S15) S42)
(declare-fun f80 () S43)
(declare-fun f81 (S44 S23) S23)
(declare-fun f82 (S45 S13) S44)
(declare-fun f83 () S45)
(assert (not (= f1 f2)))
(assert (not (= (f3 (f4 (f5 f6 (f7 f8 (f7 f9 f10)))) (ite (= f11 f12) f13 (f14 f15 (f16 f17 f11)))) f1)))
(assert (not (forall ((?v0 S10) (?v1 S10)) (let ((?v_0 (f19 f20 f11))) (= (f18 ?v_0 ?v0) (f18 ?v_0 ?v1))))))
(assert (= (f14 f15 (f14 f15 f13)) (f5 f6 (f7 f8 (f7 f9 f10)))))
(assert (= (f5 f6 (f7 f8 (f7 f9 f10))) (f14 f15 (f14 f15 f13))))
(assert (forall ((?v0 S3)) (= (f3 (f4 f13) ?v0) f1)))
(assert (= (f5 f6 (f7 f9 f10)) (f14 f15 f13)))
(assert (= (f5 f6 (f7 f9 (f7 f9 f10))) (f14 f15 (f14 f15 (f14 f15 f13)))))
(assert (forall ((?v0 S7)) (= (f16 f21 ?v0) (ite (= ?v0 f12) f13 (f14 f15 (f16 f17 ?v0))))))
(assert (forall ((?v0 S13)) (= (f22 f23 ?v0) (ite (= ?v0 f24) f13 (f14 f15 (f22 f25 ?v0))))))
(assert (forall ((?v0 S15)) (= (f26 f27 ?v0) (ite (= ?v0 f28) f13 (f14 f15 (f26 f29 ?v0))))))
(assert (forall ((?v0 S17)) (= (f30 f31 ?v0) (ite (= ?v0 f32) f13 (f14 f15 (f30 f33 ?v0))))))
(assert (forall ((?v0 S19)) (= (f34 f35 ?v0) (ite (= ?v0 f36) f13 (f14 f15 (f34 f37 ?v0))))))
(assert (forall ((?v0 S21)) (= (f38 f39 ?v0) (ite (= ?v0 f40) f13 (f14 f15 (f38 f41 ?v0))))))
(assert (forall ((?v0 S23)) (= (f42 f43 ?v0) (ite (= ?v0 f44) f13 (f14 f15 (f42 f45 ?v0))))))
(assert (forall ((?v0 S5)) (= (= (f46 f47 (f7 f48 ?v0)) f1) (= (f46 f10 ?v0) f1))))
(assert (forall ((?v0 S5)) (= (= (f49 f24 (f50 f51 ?v0)) f1) (= (f46 f10 ?v0) f1))))
(assert (forall ((?v0 S5)) (= (= (f52 f44 (f53 f54 ?v0)) f1) (= (f46 f10 ?v0) f1))))
(assert (forall ((?v0 S5)) (= (= (f46 (f7 f48 ?v0) f47) f1) (= (f46 ?v0 f10) f1))))
(assert (forall ((?v0 S5)) (= (= (f49 (f50 f51 ?v0) f24) f1) (= (f46 ?v0 f10) f1))))
(assert (forall ((?v0 S5)) (= (= (f52 (f53 f54 ?v0) f44) f1) (= (f46 ?v0 f10) f1))))
(assert (forall ((?v0 S10)) (= (f18 (f19 f20 f12) ?v0) f55)))
(assert (forall ((?v0 S5)) (= (f7 (f56 f57 f44) ?v0) f47)))
(assert (forall ((?v0 S3)) (= (f14 (f58 f59 f40) ?v0) f13)))
(assert (forall ((?v0 S7)) (= (f60 (f61 f62 f36) ?v0) f12)))
(assert (forall ((?v0 S13)) (= (f63 (f64 f65 f66) ?v0) f24)))
(assert (forall ((?v0 S15)) (= (f67 (f68 f69 f70) ?v0) f28)))
(assert (forall ((?v0 S17)) (= (f71 (f72 f73 f74) ?v0) f32)))
(assert (forall ((?v0 S19)) (= (f75 (f76 f77 f32) ?v0) f36)))
(assert (forall ((?v0 S21)) (= (f78 (f79 f80 f28) ?v0) f40)))
(assert (forall ((?v0 S23)) (= (f81 (f82 f83 f24) ?v0) f44)))
(assert (= (f16 f17 f12) f13))
(assert (= (f22 f25 f24) f13))
(assert (= (f26 f29 f28) f13))
(assert (= (f30 f33 f32) f13))
(assert (= (f34 f37 f36) f13))
(assert (= (f38 f41 f40) f13))
(assert (= (f42 f45 f44) f13))
(assert (= f13 (f5 f6 f10)))
(assert (= (f5 f6 f10) f13))
(assert (= f47 (f7 f48 f10)))
(assert (forall ((?v0 S5)) (= (f46 ?v0 ?v0) f1)))
(assert (forall ((?v0 S5) (?v1 S5)) (or (= (f46 ?v0 ?v1) f1) (= (f46 ?v1 ?v0) f1))))
(assert (forall ((?v0 S5) (?v1 S5)) (= (= (f46 (f7 f48 ?v0) (f7 f48 ?v1)) f1) (= (f46 ?v0 ?v1) f1))))
(assert (forall ((?v0 S5) (?v1 S5) (?v2 S5)) (=> (= (f46 ?v0 ?v1) f1) (=> (= (f46 ?v1 ?v2) f1) (= (f46 ?v0 ?v2) f1)))))
(assert (forall ((?v0 S5) (?v1 S5)) (=> (= (f46 ?v0 ?v1) f1) (=> (= (f46 ?v1 ?v0) f1) (= ?v0 ?v1)))))
(assert (forall ((?v0 S5) (?v1 S5)) (= (= (f46 (f7 f9 ?v0) (f7 f9 ?v1)) f1) (= (f46 ?v0 ?v1) f1))))
(assert (forall ((?v0 S5) (?v1 S5)) (= (= (f46 (f7 f9 ?v0) (f7 f9 ?v1)) f1) (= (f46 ?v0 ?v1) f1))))
(assert (= (= (f46 f10 f10) f1) true))
(assert (forall ((?v0 S5) (?v1 S5)) (= (= (f46 (f7 f8 ?v0) (f7 f8 ?v1)) f1) (= (f46 ?v0 ?v1) f1))))
(assert (forall ((?v0 S5) (?v1 S5)) (= (= (f46 (f7 f8 ?v0) (f7 f8 ?v1)) f1) (= (f46 ?v0 ?v1) f1))))
(assert (= f10 f47))
(assert (forall ((?v0 S5)) (= (= (f46 f10 (f7 f9 ?v0)) f1) (= (f46 f10 ?v0) f1))))
(assert (forall ((?v0 S5) (?v1 S5)) (= (= (f46 (f7 f8 ?v0) (f7 f9 ?v1)) f1) (= (f46 ?v0 ?v1) f1))))
(assert (forall ((?v0 S5) (?v1 S5)) (= (= (f46 (f7 f8 ?v0) (f7 f9 ?v1)) f1) (= (f46 ?v0 ?v1) f1))))
(assert (forall ((?v0 S5)) (= (= (f46 (f7 f8 ?v0) f10) f1) (= (f46 ?v0 f10) f1))))
(assert (forall ((?v0 S5)) (= (= (f46 f10 (f7 f8 ?v0)) f1) (= (f46 f10 ?v0) f1))))
(assert (forall ((?v0 S5)) (= (= (f5 f6 ?v0) f13) (= (f46 ?v0 f10) f1))))
(assert (forall ((?v0 S5)) (= (= f13 (f5 f6 ?v0)) (= (f46 ?v0 f10) f1))))
(assert (forall ((?v0 S5) (?v1 S5)) (= (= (f3 (f4 (f5 f6 ?v0)) (f5 f6 ?v1)) f1) (ite (= (f46 ?v0 ?v1) f1) true (= (f46 ?v0 f10) f1)))))
(assert (forall ((?v0 S5) (?v1 S5)) (= (= (f7 f48 ?v0) (f7 f48 ?v1)) (= ?v0 ?v1))))
(assert (forall ((?v0 S5) (?v1 S5)) (= (= (f53 f54 ?v0) (f53 f54 ?v1)) (= ?v0 ?v1))))
(assert (forall ((?v0 S5) (?v1 S5)) (let ((?v_0 (f7 f48 ?v0))) (= (= ?v_0 ?v1) (= ?v1 ?v_0)))))
(assert (forall ((?v0 S5) (?v1 S3)) (let ((?v_0 (f5 f6 ?v0))) (= (= ?v_0 ?v1) (= ?v1 ?v_0)))))
(assert (forall ((?v0 S5) (?v1 S23)) (let ((?v_0 (f53 f54 ?v0))) (= (= ?v_0 ?v1) (= ?v1 ?v_0)))))
(assert (forall ((?v0 S5) (?v1 S5)) (= (= (f7 f9 ?v0) (f7 f9 ?v1)) (= ?v0 ?v1))))
(assert (= (= f10 f10) true))
(assert (forall ((?v0 S3) (?v1 S3)) (=> (= (f14 f15 ?v0) (f14 f15 ?v1)) (= ?v0 ?v1))))
(assert (forall ((?v0 S3) (?v1 S3)) (= (= (f14 f15 ?v0) (f14 f15 ?v1)) (= ?v0 ?v1))))
(assert (forall ((?v0 S3)) (not (= (f14 f15 ?v0) ?v0))))
(assert (forall ((?v0 S3)) (not (= ?v0 (f14 f15 ?v0)))))
(assert (forall ((?v0 S5) (?v1 S5)) (= (= (f7 f8 ?v0) (f7 f8 ?v1)) (= ?v0 ?v1))))
(assert (forall ((?v0 S3) (?v1 S3)) (=> (= (f3 (f4 ?v0) ?v1) f1) (=> (= (f3 (f4 ?v1) ?v0) f1) (= ?v0 ?v1)))))
(assert (forall ((?v0 S3) (?v1 S3) (?v2 S3)) (let ((?v_0 (f4 ?v0))) (=> (= (f3 ?v_0 ?v1) f1) (=> (= (f3 (f4 ?v1) ?v2) f1) (= (f3 ?v_0 ?v2) f1))))))
(assert (forall ((?v0 S3) (?v1 S3)) (=> (= ?v0 ?v1) (= (f3 (f4 ?v0) ?v1) f1))))
(assert (forall ((?v0 S3) (?v1 S3)) (or (= (f3 (f4 ?v0) ?v1) f1) (= (f3 (f4 ?v1) ?v0) f1))))
(assert (forall ((?v0 S3)) (= (f3 (f4 ?v0) ?v0) f1)))
(assert (forall ((?v0 S13) (?v1 S13)) (= (= (f82 f83 ?v0) (f82 f83 ?v1)) (= ?v0 ?v1))))
(assert (forall ((?v0 S23) (?v1 S23)) (= (= (f56 f57 ?v0) (f56 f57 ?v1)) (= ?v0 ?v1))))
(assert (forall ((?v0 S5) (?v1 S5)) (= (= (f46 (f7 f48 ?v0) (f7 f48 ?v1)) f1) (= (f46 ?v0 ?v1) f1))))
(assert (forall ((?v0 S5) (?v1 S5)) (= (= (f52 (f53 f54 ?v0) (f53 f54 ?v1)) f1) (= (f46 ?v0 ?v1) f1))))
(assert (forall ((?v0 S3)) (=> (= (f14 f15 ?v0) f13) false)))
(assert (forall ((?v0 S3)) (=> (= f13 (f14 f15 ?v0)) false)))
(assert (forall ((?v0 S3)) (not (= (f14 f15 ?v0) f13))))
(assert (forall ((?v0 S3)) (not (= (f14 f15 ?v0) f13))))
(assert (forall ((?v0 S3)) (not (= f13 (f14 f15 ?v0)))))
(assert (forall ((?v0 S3)) (not (= f13 (f14 f15 ?v0)))))
(assert (forall ((?v0 S5)) (= (= (f7 f9 ?v0) f10) false)))
(assert (forall ((?v0 S5)) (= (= f10 (f7 f9 ?v0)) false)))
(assert (forall ((?v0 S5) (?v1 S5)) (= (= (f7 f9 ?v0) (f7 f8 ?v1)) false)))
(assert (forall ((?v0 S5) (?v1 S5)) (= (= (f7 f8 ?v0) (f7 f9 ?v1)) false)))
(assert (forall ((?v0 S5)) (= (= (f7 f8 ?v0) f10) (= ?v0 f10))))
(assert (forall ((?v0 S5)) (= (= f10 (f7 f8 ?v0)) (= f10 ?v0))))
(assert (= (f7 f8 f10) f10))
(assert (forall ((?v0 S3)) (= (= (f3 (f4 ?v0) f13) f1) (= ?v0 f13))))
(assert (forall ((?v0 S3)) (= (= (f3 (f4 f13) ?v0) f1) true)))
(check-sat)
(exit)
